============================[ Problem Statistics ]=============================|                                                                             ||  Number of variables:          4242                                         ||  Number of clauses:           10340                                         ||  Parse time:                   0.72 s                                       ||                                                                             |============================[ Search Statistics ]==============================| Conflicts |          ORIGINAL         |          LEARNT          | Progress ||           |    Vars  Clauses Literals |    Limit  Clauses Lit/Cl |          |===============================================================================|       100 |    1591     6545  1160496 |     2399      100     53 | 62.501 % ||       250 |    1591     6545  1160496 |     2639      250     75 | 62.495 % |===============================================================================restarts              : 3conflicts             : 394            (359 /sec)decisions             : 659            (0.00 % random) (601 /sec)propagations          : 12046          (10981 /sec)conflict literals     : 32614          (94.56 % deleted)CPU time              : 1.097 sSATISFIABLE